 argument  1 = xyz141.in
                                         
                                         


             Northwest Computational Chemistry Package (NWChem) 7.2.3
             --------------------------------------------------------


                    Environmental Molecular Sciences Laboratory
                       Pacific Northwest National Laboratory
                                Richland, WA 99352

                              Copyright (c) 1994-2022
                       Pacific Northwest National Laboratory
                            Battelle Memorial Institute

             NWChem is an open-source computational chemistry package
                        distributed under the terms of the
                      Educational Community License (ECL) 2.0
             A copy of the license is included with this distribution
                              in the LICENSE.TXT file

                                  ACKNOWLEDGMENT
                                  --------------

            This software and its documentation were developed at the
            EMSL at Pacific Northwest National Laboratory, a multiprogram
            national laboratory, operated for the U.S. Department of Energy
            by Battelle under Contract Number DE-AC05-76RL01830. Support
            for this work was provided by the Department of Energy Office
            of Biological and Environmental Research, Office of Basic
            Energy Sciences, and the Office of Advanced Scientific Computing.


           Job information
           ---------------

    hostname        = gpu003
    program         = /home/rrichard/nwchem/bin/LINUX64/nwchem
    date            = Thu Jul 17 16:54:19 2025

    compiled        = Mon_Jul_07_13:04:19_2025
    source          = /home/rrichard/nwchem
    nwchem branch   = 7.2.3
    nwchem revision = v7.2.0-beta1-1473-g5687662257
    ga revision     = 5.9.2
    use scalapack   = T
    input           = xyz141.in
    prefix          = xyz141.
    data base       = ./xyz141.db
    status          = startup
    nproc           =        2
    time left       =     -1s



           Memory information
           ------------------

    heap     =    431126723 doubles =     3289.2 Mbytes
    stack    =    431126727 doubles =     3289.2 Mbytes
    global   =    246358129 doubles =     1879.6 Mbytes (distinct from heap & stack)
    total    =   1108611579 doubles =     8458.0 Mbytes
    verify   = yes
    hardfail = no 


           Directory information
           ---------------------

  0 permanent = .
  0 scratch   = .




                                NWChem Input Module
                                -------------------



 Scaling coordinates for geometry "geometry" by  1.889725989
 (inverse scale =  0.529177249)

 C1  symmetry detected

          ------
          auto-z
          ------
  autoz: The atoms group into disjoint clusters
 cluster   1:    1    2    3    4    5    6    7    8
 cluster   2:    9   10   11   12   13   14   15   16   17
 Connecting clusters   1   2 via atoms    8   14 r = 2.82
  autoz: regenerating connections with new bonds
  no constraints, skipping    0.0000000000000000     
  no constraints, skipping    0.0000000000000000     


                             Geometry "geometry" -> ""
                             -------------------------

 Output coordinates in angstroms (scale by  1.889725989 to convert to a.u.)

  No.       Tag          Charge          X              Y              Z
 ---- ---------------- ---------- -------------- -------------- --------------
    1 I                   53.0000    -1.39932762     1.54772490    -0.17238325
    2 I                   53.0000     1.92306533     0.34631262    -0.25560052
    3 C                    6.0000     0.36622727     1.06539672     2.24314189
    4 C                    6.0000     0.11437999     0.46361356     0.87647061
    5 H                    1.0000     0.73835374     2.10031104     2.15894645
    6 H                    1.0000     1.11554043     0.46518756     2.78616379
    7 H                    1.0000    -0.56867993     1.07422620     2.82834748
    8 H                    1.0000    -0.26118436    -0.57855992     0.92839525
    9 S                   16.0000    -1.42509980    -3.28320286     0.30727085
   10 C                    6.0000    -1.33782938    -2.69922746    -1.39364189
   11 C                    6.0000     0.23477057    -3.97024477     0.42798246
   12 H                    1.0000    -2.30536303    -2.23304235    -1.64493888
   13 H                    1.0000    -1.15424099    -3.52936403    -2.09634025
   14 H                    1.0000    -0.54116417    -1.94720755    -1.52168089
   15 H                    1.0000     0.39127400    -4.77848878    -0.30608692
   16 H                    1.0000     1.00435090    -3.19633216     0.26857103
   17 H                    1.0000     0.35932065    -4.38670084     1.44171056

      Atomic Mass 
      ----------- 

      I                126.900400
      C                 12.000000
      H                  1.007825
      S                 31.972070


 Effective nuclear repulsion energy (a.u.)    1355.2557718649

            Nuclear Dipole moment (a.u.) 
            ----------------------------
        X                 Y               Z
 ---------------- ---------------- ----------------
     0.0000000000    -0.0000000000     0.0000000000



                                Z-matrix (autoz)
                                -------- 

 Units are Angstrom for bonds and degrees for angles

      Type          Name      I     J     K     L     M      Value
      ----------- --------  ----- ----- ----- ----- ----- ----------
    1 Stretch                  1     4                       2.13698
    2 Stretch                  2     4                       2.13698
    3 Stretch                  3     4                       1.51438
    4 Stretch                  3     5                       1.10300
    5 Stretch                  3     6                       1.10299
    6 Stretch                  3     7                       1.10299
    7 Stretch                  4     8                       1.10900
    8 Stretch                  8    14                       2.82036
    9 Stretch                  9    10                       1.80049
   10 Stretch                  9    11                       1.80049
   11 Stretch                 10    12                       1.10300
   12 Stretch                 10    13                       1.10300
   13 Stretch                 10    14                       1.10300
   14 Stretch                 11    15                       1.10300
   15 Stretch                 11    16                       1.10300
   16 Stretch                 11    17                       1.10299
   17 Bend                     1     4     2               111.55276
   18 Bend                     1     4     3               111.04752
   19 Bend                     1     4     8               105.06063
   20 Bend                     2     4     3               111.04727
   21 Bend                     2     4     8               105.06099
   22 Bend                     3     4     8               112.79897
   23 Bend                     4     3     5               111.10433
   24 Bend                     4     3     6               109.93992
   25 Bend                     4     3     7               109.93970
   26 Bend                     4     8    14               116.67811
   27 Bend                     5     3     6               108.59992
   28 Bend                     5     3     7               108.59951
   29 Bend                     6     3     7               108.60071
   30 Bend                     8    14    10               107.56071
   31 Bend                     9    10    12               108.04710
   32 Bend                     9    10    13               111.45725
   33 Bend                     9    10    14               111.45732
   34 Bend                     9    11    15               111.45697
   35 Bend                     9    11    16               111.45663
   36 Bend                     9    11    17               108.04681
   37 Bend                    10     9    11                98.18767
   38 Bend                    12    10    13               108.59954
   39 Bend                    12    10    14               108.59988
   40 Bend                    13    10    14               108.59995
   41 Bend                    15    11    16               108.60004
   42 Bend                    15    11    17               108.60049
   43 Bend                    16    11    17               108.60016
   44 Torsion                  1     4     3     5         -62.36937
   45 Torsion                  1     4     3     6         177.38481
   46 Torsion                  1     4     3     7          57.87578
   47 Torsion                  1     4     8    14          64.81586
   48 Torsion                  2     4     3     5          62.36956
   49 Torsion                  2     4     3     6         -57.87626
   50 Torsion                  2     4     3     7        -177.38529
   51 Torsion                  2     4     8    14         -52.98275
   52 Torsion                  3     4     8    14        -174.08341
   53 Torsion                  4     8    14    10        -152.44766
   54 Torsion                  5     3     4     8        -179.99976
   55 Torsion                  6     3     4     8          59.75442
   56 Torsion                  7     3     4     8         -59.75461
   57 Torsion                  8    14    10     9         -29.94961
   58 Torsion                  8    14    10    12          88.96392
   59 Torsion                  8    14    10    13        -153.11006
   60 Torsion                 10     9    11    15         -60.75718
   61 Torsion                 10     9    11    16          60.75724
   62 Torsion                 10     9    11    17         179.99973
   63 Torsion                 11     9    10    12         179.99965
   64 Torsion                 11     9    10    13          60.75737
   65 Torsion                 11     9    10    14         -60.75761


            XYZ format geometry
            -------------------
    17
 geometry
 I                    -1.39932762     1.54772490    -0.17238325
 I                     1.92306533     0.34631262    -0.25560052
 C                     0.36622727     1.06539672     2.24314189
 C                     0.11437999     0.46361356     0.87647061
 H                     0.73835374     2.10031104     2.15894645
 H                     1.11554043     0.46518756     2.78616379
 H                    -0.56867993     1.07422620     2.82834748
 H                    -0.26118436    -0.57855992     0.92839525
 S                    -1.42509980    -3.28320286     0.30727085
 C                    -1.33782938    -2.69922746    -1.39364189
 C                     0.23477057    -3.97024477     0.42798246
 H                    -2.30536303    -2.23304235    -1.64493888
 H                    -1.15424099    -3.52936403    -2.09634025
 H                    -0.54116417    -1.94720755    -1.52168089
 H                     0.39127400    -4.77848878    -0.30608692
 H                     1.00435090    -3.19633216     0.26857103
 H                     0.35932065    -4.38670084     1.44171056

 ==============================================================================
                                internuclear distances
 ------------------------------------------------------------------------------
       center one      |      center two      | atomic units |  angstroms
 ------------------------------------------------------------------------------
    4 C                |   1 I                |     4.03832  |     2.13698
    4 C                |   2 I                |     4.03831  |     2.13698
    4 C                |   3 C                |     2.86177  |     1.51438
    5 H                |   3 C                |     2.08437  |     1.10300
    6 H                |   3 C                |     2.08435  |     1.10299
    7 H                |   3 C                |     2.08436  |     1.10299
    8 H                |   4 C                |     2.09570  |     1.10900
   10 C                |   9 S                |     3.40242  |     1.80049
   11 C                |   9 S                |     3.40243  |     1.80049
   12 H                |  10 C                |     2.08436  |     1.10300
   13 H                |  10 C                |     2.08437  |     1.10300
   14 H                |  10 C                |     2.08436  |     1.10300
   15 H                |  11 C                |     2.08437  |     1.10300
   16 H                |  11 C                |     2.08437  |     1.10300
   17 H                |  11 C                |     2.08435  |     1.10299
 ------------------------------------------------------------------------------
                         number of included internuclear distances:         15
 ==============================================================================



 ==============================================================================
                                 internuclear angles
 ------------------------------------------------------------------------------
        center 1       |       center 2       |       center 3       |  degrees
 ------------------------------------------------------------------------------
    4 C                |   3 C                |   5 H                |   111.10
    4 C                |   3 C                |   6 H                |   109.94
    4 C                |   3 C                |   7 H                |   109.94
    5 H                |   3 C                |   6 H                |   108.60
    5 H                |   3 C                |   7 H                |   108.60
    6 H                |   3 C                |   7 H                |   108.60
    1 I                |   4 C                |   2 I                |   111.55
    1 I                |   4 C                |   3 C                |   111.05
    1 I                |   4 C                |   8 H                |   105.06
    2 I                |   4 C                |   3 C                |   111.05
    2 I                |   4 C                |   8 H                |   105.06
    3 C                |   4 C                |   8 H                |   112.80
   10 C                |   9 S                |  11 C                |    98.19
    9 S                |  10 C                |  12 H                |   108.05
    9 S                |  10 C                |  13 H                |   111.46
    9 S                |  10 C                |  14 H                |   111.46
   12 H                |  10 C                |  13 H                |   108.60
   12 H                |  10 C                |  14 H                |   108.60
   13 H                |  10 C                |  14 H                |   108.60
    9 S                |  11 C                |  15 H                |   111.46
    9 S                |  11 C                |  16 H                |   111.46
    9 S                |  11 C                |  17 H                |   108.05
   15 H                |  11 C                |  16 H                |   108.60
   15 H                |  11 C                |  17 H                |   108.60
   16 H                |  11 C                |  17 H                |   108.60
 ------------------------------------------------------------------------------
                            number of included internuclear angles:         25
 ==============================================================================





 Summary of "ao basis" -> "" (cartesian)
 ------------------------------------------------------------------------------
       Tag                 Description            Shells   Functions and Types
 ---------------- ------------------------------  ------  ---------------------
 *                          cc-pvdz                   on all atoms 




                           NWChem Geometry Optimization
                           ----------------------------


  no constraints, skipping    0.0000000000000000     
 maximum gradient threshold         (gmax) =   0.000450
 rms gradient threshold             (grms) =   0.000300
 maximum cartesian step threshold   (xmax) =   0.001800
 rms cartesian step threshold       (xrms) =   0.001200
 fixed trust radius                (trust) =   0.300000
 maximum step size to saddle      (sadstp) =   0.100000
 energy precision                  (eprec) =   5.0D-06
 maximum number of steps          (nptopt) =   40
 initial hessian option           (inhess) =    0
 line search option               (linopt) =    1
 hessian update option            (modupd) =    1
 saddle point option              (modsad) =    0
 initial eigen-mode to follow     (moddir) =    0
 initial variable to follow       (vardir) =    0
 follow first negative mode     (firstneg) =    T
 apply conjugacy                    (opcg) =    F
 source of zmatrix                         =   autoz   


          -------------------
          Energy Minimization
          -------------------


 Names of Z-matrix variables 
    1              2              3              4              5         
    6              7              8              9             10         
   11             12             13             14             15         
   16             17             18             19             20         
   21             22             23             24             25         
   26             27             28             29             30         
   31             32             33             34             35         
   36             37             38             39             40         
   41             42             43             44             45         
   46             47             48             49             50         
   51             52             53             54             55         
   56             57             58             59             60         
   61             62             63             64             65         

 Variables with the same non-blank name are constrained to be equal


 Using diagonal initial Hessian 
 Scaling for Hessian diagonals: bonds = 1.00  angles = 0.25  torsions = 0.10

          --------
          Step   0
          --------


                         Geometry "geometry" -> "geometry"
                         ---------------------------------

 Output coordinates in angstroms (scale by  1.889725989 to convert to a.u.)

  No.       Tag          Charge          X              Y              Z
 ---- ---------------- ---------- -------------- -------------- --------------
    1 I                   53.0000    -1.39932762     1.54772490    -0.17238325
    2 I                   53.0000     1.92306533     0.34631262    -0.25560052
    3 C                    6.0000     0.36622727     1.06539672     2.24314189
    4 C                    6.0000     0.11437999     0.46361356     0.87647061
    5 H                    1.0000     0.73835374     2.10031104     2.15894645
    6 H                    1.0000     1.11554043     0.46518756     2.78616379
    7 H                    1.0000    -0.56867993     1.07422620     2.82834748
    8 H                    1.0000    -0.26118436    -0.57855992     0.92839525
    9 S                   16.0000    -1.42509980    -3.28320286     0.30727085
   10 C                    6.0000    -1.33782938    -2.69922746    -1.39364189
   11 C                    6.0000     0.23477057    -3.97024477     0.42798246
   12 H                    1.0000    -2.30536303    -2.23304235    -1.64493888
   13 H                    1.0000    -1.15424099    -3.52936403    -2.09634025
   14 H                    1.0000    -0.54116417    -1.94720755    -1.52168089
   15 H                    1.0000     0.39127400    -4.77848878    -0.30608692
   16 H                    1.0000     1.00435090    -3.19633216     0.26857103
   17 H                    1.0000     0.35932065    -4.38670084     1.44171056

      Atomic Mass 
      ----------- 

      I                126.900400
      C                 12.000000
      H                  1.007825
      S                 31.972070


 Effective nuclear repulsion energy (a.u.)    1355.2557718649

            Nuclear Dipole moment (a.u.) 
            ----------------------------
        X                 Y               Z
 ---------------- ---------------- ----------------
     0.0000000000    -0.0000000000     0.0000000000


                                 NWChem DFT Module
                                 -----------------


  bas_tag_lib: failed to locate basis i_cc-pvdz in file /home/rrichard/nwchem/src/basis/libraries/
 ------------------------------------------------------------------------
 bas_tag_lib: no such basis available                   0
 ------------------------------------------------------------------------
 ------------------------------------------------------------------------
  current input line : 
    29: task dft optimize
 ------------------------------------------------------------------------
 ------------------------------------------------------------------------
 There is an error in the input file
 ------------------------------------------------------------------------
 For more information see the NWChem manual at https://nwchemgit.github.io


 For further details see manual section:                                                                                                                                                                                                                                                                
[0] Received an Error in Communication: (-1) 0:bas_tag_lib: no such basis available:
--------------------------------------------------------------------------
MPI_ABORT was invoked on rank 0 in communicator MPI COMMUNICATOR 3 DUP FROM 0
with errorcode -1.

NOTE: invoking MPI_ABORT causes Open MPI to kill all MPI processes.
You may or may not see output from other processes, depending on
exactly when Open MPI kills them.
--------------------------------------------------------------------------
  bas_tag_lib: failed to locate basis i_cc-pvdz in file /home/rrichard/nwchem/src/basis/libraries/
 bas_tag_lib: no such basis available                   0
 ------------------------------------------------------------------------
 ------------------------------------------------------------------------
  current input line : 
     0: 
 ------------------------------------------------------------------------
 ------------------------------------------------------------------------
 There is an error in the input file
 ------------------------------------------------------------------------
 For more information see the NWChem manual at https://nwchemgit.github.io


 For further details see manual section:                                                                                                                                                                                                                                                                
[2] Received an Error in Communication: (-1) 1:bas_tag_lib: no such basis available:
[gpu003:84759] 1 more process has sent help message help-mpi-api.txt / mpi-abort
[gpu003:84759] Set MCA parameter "orte_base_help_aggregate" to 0 to see all help / error messages
